c A SAT instance generated from a 3-CNF formula that had 29 clauses and 6 variables
p cnf 6 29
-1 -2 -4 0
-6 4 -1 0
-1 5 4 0
-5 -4 -3 0
4 3 5 0
-2 -4 -1 0
-4 -2 6 0
-6 -3 1 0
-5 3 -6 0
-5 6 1 0
-6 -5 4 0
-5 -1 -2 0
-3 -5 -6 0
2 -1 -3 0
2 3 -4 0
-6 3 4 0
-6 -5 -3 0
2 -5 -3 0
-2 6 5 0
-4 3 1 0
6 -2 -3 0
6 3 5 0
-2 -3 -5 0
-1 -3 -4 0
-4 -5 6 0
-2 5 6 0
-3 5 -1 0
1 4 -3 0
3 1 5 0
